p cnf 430 1537
c p weight 42 -1 0
c p weight -42 1 0
c p weight 44 6.12323399573676603586882014729198302312846062338790031898128063403419218957424163818359375E-17 0
c p weight -44 1 0
c p weight 45 1 0
c p weight -45 1 0
c p weight 46 -1 0
c p weight -46 1 0
c p weight 48 -1 0
c p weight -48 1 0
c p weight 49 -1 0
c p weight -49 1 0
c p weight 51 -1 0
c p weight -51 1 0
c p weight 53 6.12323399573676603586882014729198302312846062338790031898128063403419218957424163818359375E-17 0
c p weight -53 1 0
c p weight 54 1 0
c p weight -54 1 0
c p weight 55 -1 0
c p weight -55 1 0
c p weight 57 -1 0
c p weight -57 1 0
c p weight 58 -1 0
c p weight -58 1 0
c p weight 60 -1 0
c p weight -60 1 0
c p weight 62 6.12323399573676603586882014729198302312846062338790031898128063403419218957424163818359375E-17 0
c p weight -62 1 0
c p weight 63 1 0
c p weight -63 1 0
c p weight 64 -1 0
c p weight -64 1 0
c p weight 66 -1 0
c p weight -66 1 0
c p weight 68 -1 0
c p weight -68 1 0
c p weight 70 6.12323399573676603586882014729198302312846062338790031898128063403419218957424163818359375E-17 0
c p weight -70 1 0
c p weight 71 1 0
c p weight -71 1 0
c p weight 72 -1 0
c p weight -72 1 0
c p weight 74 -1 0
c p weight -74 1 0
c p weight 75 -1 0
c p weight -75 1 0
c p weight 77 -1 0
c p weight -77 1 0
c p weight 79 6.12323399573676603586882014729198302312846062338790031898128063403419218957424163818359375E-17 0
c p weight -79 1 0
c p weight 80 1 0
c p weight -80 1 0
c p weight 81 -1 0
c p weight -81 1 0
c p weight 83 -1 0
c p weight -83 1 0
c p weight 85 -1 0
c p weight -85 1 0
c p weight 87 6.12323399573676603586882014729198302312846062338790031898128063403419218957424163818359375E-17 0
c p weight -87 1 0
c p weight 88 1 0
c p weight -88 1 0
c p weight 89 -1 0
c p weight -89 1 0
c p weight 91 -1 0
c p weight -91 1 0
c p weight 92 -1 0
c p weight -92 1 0
c p weight 94 -1 0
c p weight -94 1 0
c p weight 96 6.12323399573676603586882014729198302312846062338790031898128063403419218957424163818359375E-17 0
c p weight -96 1 0
c p weight 97 1 0
c p weight -97 1 0
c p weight 98 -1 0
c p weight -98 1 0
c p weight 100 -1 0
c p weight -100 1 0
c p weight 101 -1 0
c p weight -101 1 0
c p weight 103 -1 0
c p weight -103 1 0
c p weight 105 6.12323399573676603586882014729198302312846062338790031898128063403419218957424163818359375E-17 0
c p weight -105 1 0
c p weight 106 1 0
c p weight -106 1 0
c p weight 107 -1 0
c p weight -107 1 0
c p weight 109 -1 0
c p weight -109 1 0
c p weight 111 -1 0
c p weight -111 1 0
c p weight 113 6.12323399573676603586882014729198302312846062338790031898128063403419218957424163818359375E-17 0
c p weight -113 1 0
c p weight 114 1 0
c p weight -114 1 0
c p weight 115 -1 0
c p weight -115 1 0
c p weight 117 -1 0
c p weight -117 1 0
c p weight 118 -1 0
c p weight -118 1 0
c p weight 120 -1 0
c p weight -120 1 0
c p weight 122 6.12323399573676603586882014729198302312846062338790031898128063403419218957424163818359375E-17 0
c p weight -122 1 0
c p weight 123 1 0
c p weight -123 1 0
c p weight 124 -1 0
c p weight -124 1 0
c p weight 126 -1 0
c p weight -126 1 0
c p weight 127 -1 0
c p weight -127 1 0
c p weight 129 -1 0
c p weight -129 1 0
c p weight 131 6.12323399573676603586882014729198302312846062338790031898128063403419218957424163818359375E-17 0
c p weight -131 1 0
c p weight 132 1 0
c p weight -132 1 0
c p weight 133 -1 0
c p weight -133 1 0
c p weight 135 -1 0
c p weight -135 1 0
c p weight 137 -1 0
c p weight -137 1 0
c p weight 139 6.12323399573676603586882014729198302312846062338790031898128063403419218957424163818359375E-17 0
c p weight -139 1 0
c p weight 140 1 0
c p weight -140 1 0
c p weight 141 -1 0
c p weight -141 1 0
c p weight 143 -1 0
c p weight -143 1 0
c p weight 144 -1 0
c p weight -144 1 0
c p weight 146 -1 0
c p weight -146 1 0
c p weight 148 6.12323399573676603586882014729198302312846062338790031898128063403419218957424163818359375E-17 0
c p weight -148 1 0
c p weight 149 1 0
c p weight -149 1 0
c p weight 150 -1 0
c p weight -150 1 0
c p weight 152 -1 0
c p weight -152 1 0
c p weight 153 -1 0
c p weight -153 1 0
c p weight 155 -1 0
c p weight -155 1 0
c p weight 157 6.12323399573676603586882014729198302312846062338790031898128063403419218957424163818359375E-17 0
c p weight -157 1 0
c p weight 158 1 0
c p weight -158 1 0
c p weight 159 -1 0
c p weight -159 1 0
c p weight 161 -1 0
c p weight -161 1 0
c p weight 163 -1 0
c p weight -163 1 0
c p weight 165 6.12323399573676603586882014729198302312846062338790031898128063403419218957424163818359375E-17 0
c p weight -165 1 0
c p weight 166 1 0
c p weight -166 1 0
c p weight 167 -1 0
c p weight -167 1 0
c p weight 169 -1 0
c p weight -169 1 0
c p weight 171 -1 0
c p weight -171 1 0
c p weight 173 6.12323399573676603586882014729198302312846062338790031898128063403419218957424163818359375E-17 0
c p weight -173 1 0
c p weight 174 1 0
c p weight -174 1 0
c p weight 175 -1 0
c p weight -175 1 0
c p weight 177 -1 0
c p weight -177 1 0
c p weight 178 -1 0
c p weight -178 1 0
c p weight 180 -1 0
c p weight -180 1 0
c p weight 182 6.12323399573676603586882014729198302312846062338790031898128063403419218957424163818359375E-17 0
c p weight -182 1 0
c p weight 183 1 0
c p weight -183 1 0
c p weight 184 -1 0
c p weight -184 1 0
c p weight 186 -1 0
c p weight -186 1 0
c p weight 188 -1 0
c p weight -188 1 0
c p weight 190 6.12323399573676603586882014729198302312846062338790031898128063403419218957424163818359375E-17 0
c p weight -190 1 0
c p weight 191 1 0
c p weight -191 1 0
c p weight 192 -1 0
c p weight -192 1 0
c p weight 194 -1 0
c p weight -194 1 0
c p weight 196 -1 0
c p weight -196 1 0
c p weight 198 6.12323399573676603586882014729198302312846062338790031898128063403419218957424163818359375E-17 0
c p weight -198 1 0
c p weight 199 1 0
c p weight -199 1 0
c p weight 200 -1 0
c p weight -200 1 0
c p weight 202 -1 0
c p weight -202 1 0
c p weight 203 -1 0
c p weight -203 1 0
c p weight 205 -1 0
c p weight -205 1 0
c p weight 207 6.12323399573676603586882014729198302312846062338790031898128063403419218957424163818359375E-17 0
c p weight -207 1 0
c p weight 208 1 0
c p weight -208 1 0
c p weight 209 -1 0
c p weight -209 1 0
c p weight 211 -1 0
c p weight -211 1 0
c p weight 214 -1 0
c p weight -214 1 0
c p weight 215 -1 0
c p weight -215 1 0
c p weight 217 -1 0
c p weight -217 1 0
c p weight 219 6.12323399573676603586882014729198302312846062338790031898128063403419218957424163818359375E-17 0
c p weight -219 1 0
c p weight 220 1 0
c p weight -220 1 0
c p weight 221 -1 0
c p weight -221 1 0
c p weight 223 -1 0
c p weight -223 1 0
c p weight 226 -1 0
c p weight -226 1 0
c p weight 227 -1 0
c p weight -227 1 0
c p weight 229 -1 0
c p weight -229 1 0
c p weight 231 6.12323399573676603586882014729198302312846062338790031898128063403419218957424163818359375E-17 0
c p weight -231 1 0
c p weight 232 1 0
c p weight -232 1 0
c p weight 233 -1 0
c p weight -233 1 0
c p weight 235 -1 0
c p weight -235 1 0
c p weight 238 -1 0
c p weight -238 1 0
c p weight 240 -1 0
c p weight -240 1 0
c p weight 242 6.12323399573676603586882014729198302312846062338790031898128063403419218957424163818359375E-17 0
c p weight -242 1 0
c p weight 243 1 0
c p weight -243 1 0
c p weight 244 -1 0
c p weight -244 1 0
c p weight 246 -1 0
c p weight -246 1 0
c p weight 249 -1 0
c p weight -249 1 0
c p weight 250 -1 0
c p weight -250 1 0
c p weight 252 -1 0
c p weight -252 1 0
c p weight 254 6.12323399573676603586882014729198302312846062338790031898128063403419218957424163818359375E-17 0
c p weight -254 1 0
c p weight 255 1 0
c p weight -255 1 0
c p weight 256 -1 0
c p weight -256 1 0
c p weight 258 -1 0
c p weight -258 1 0
c p weight 261 -1 0
c p weight -261 1 0
c p weight 263 -1 0
c p weight -263 1 0
c p weight 265 6.12323399573676603586882014729198302312846062338790031898128063403419218957424163818359375E-17 0
c p weight -265 1 0
c p weight 266 1 0
c p weight -266 1 0
c p weight 267 -1 0
c p weight -267 1 0
c p weight 269 -1 0
c p weight -269 1 0
c p weight 272 -1 0
c p weight -272 1 0
c p weight 273 -1 0
c p weight -273 1 0
c p weight 275 -1 0
c p weight -275 1 0
c p weight 277 6.12323399573676603586882014729198302312846062338790031898128063403419218957424163818359375E-17 0
c p weight -277 1 0
c p weight 278 1 0
c p weight -278 1 0
c p weight 279 -1 0
c p weight -279 1 0
c p weight 281 -1 0
c p weight -281 1 0
c p weight 284 -1 0
c p weight -284 1 0
c p weight 285 -1 0
c p weight -285 1 0
c p weight 287 -1 0
c p weight -287 1 0
c p weight 289 6.12323399573676603586882014729198302312846062338790031898128063403419218957424163818359375E-17 0
c p weight -289 1 0
c p weight 290 1 0
c p weight -290 1 0
c p weight 291 -1 0
c p weight -291 1 0
c p weight 293 -1 0
c p weight -293 1 0
c p weight 296 -1 0
c p weight -296 1 0
c p weight 298 -1 0
c p weight -298 1 0
c p weight 300 6.12323399573676603586882014729198302312846062338790031898128063403419218957424163818359375E-17 0
c p weight -300 1 0
c p weight 301 1 0
c p weight -301 1 0
c p weight 302 -1 0
c p weight -302 1 0
c p weight 304 -1 0
c p weight -304 1 0
c p weight 307 -1 0
c p weight -307 1 0
c p weight 308 -1 0
c p weight -308 1 0
c p weight 310 -1 0
c p weight -310 1 0
c p weight 312 6.12323399573676603586882014729198302312846062338790031898128063403419218957424163818359375E-17 0
c p weight -312 1 0
c p weight 313 1 0
c p weight -313 1 0
c p weight 314 -1 0
c p weight -314 1 0
c p weight 316 -1 0
c p weight -316 1 0
c p weight 319 -1 0
c p weight -319 1 0
c p weight 320 -1 0
c p weight -320 1 0
c p weight 322 -1 0
c p weight -322 1 0
c p weight 324 6.12323399573676603586882014729198302312846062338790031898128063403419218957424163818359375E-17 0
c p weight -324 1 0
c p weight 325 1 0
c p weight -325 1 0
c p weight 326 -1 0
c p weight -326 1 0
c p weight 328 -1 0
c p weight -328 1 0
c p weight 331 -1 0
c p weight -331 1 0
c p weight 333 -1 0
c p weight -333 1 0
c p weight 335 6.12323399573676603586882014729198302312846062338790031898128063403419218957424163818359375E-17 0
c p weight -335 1 0
c p weight 336 1 0
c p weight -336 1 0
c p weight 337 -1 0
c p weight -337 1 0
c p weight 339 -1 0
c p weight -339 1 0
c p weight 342 -1 0
c p weight -342 1 0
c p weight 343 -1 0
c p weight -343 1 0
c p weight 345 -1 0
c p weight -345 1 0
c p weight 347 6.12323399573676603586882014729198302312846062338790031898128063403419218957424163818359375E-17 0
c p weight -347 1 0
c p weight 348 1 0
c p weight -348 1 0
c p weight 349 -1 0
c p weight -349 1 0
c p weight 351 -1 0
c p weight -351 1 0
c p weight 354 -1 0
c p weight -354 1 0
c p weight 355 -1 0
c p weight -355 1 0
c p weight 357 -1 0
c p weight -357 1 0
c p weight 359 6.12323399573676603586882014729198302312846062338790031898128063403419218957424163818359375E-17 0
c p weight -359 1 0
c p weight 360 1 0
c p weight -360 1 0
c p weight 361 -1 0
c p weight -361 1 0
c p weight 363 -1 0
c p weight -363 1 0
c p weight 366 -1 0
c p weight -366 1 0
c p weight 368 -1 0
c p weight -368 1 0
c p weight 370 6.12323399573676603586882014729198302312846062338790031898128063403419218957424163818359375E-17 0
c p weight -370 1 0
c p weight 371 1 0
c p weight -371 1 0
c p weight 372 -1 0
c p weight -372 1 0
c p weight 374 -1 0
c p weight -374 1 0
c p weight 377 -1 0
c p weight -377 1 0
c p weight 379 -1 0
c p weight -379 1 0
c p weight 381 6.12323399573676603586882014729198302312846062338790031898128063403419218957424163818359375E-17 0
c p weight -381 1 0
c p weight 382 1 0
c p weight -382 1 0
c p weight 383 -1 0
c p weight -383 1 0
c p weight 385 -1 0
c p weight -385 1 0
c p weight 388 -1 0
c p weight -388 1 0
c p weight 389 -1 0
c p weight -389 1 0
c p weight 391 -1 0
c p weight -391 1 0
c p weight 393 6.12323399573676603586882014729198302312846062338790031898128063403419218957424163818359375E-17 0
c p weight -393 1 0
c p weight 394 1 0
c p weight -394 1 0
c p weight 395 -1 0
c p weight -395 1 0
c p weight 397 -1 0
c p weight -397 1 0
c p weight 400 -1 0
c p weight -400 1 0
c p weight 402 -1 0
c p weight -402 1 0
c p weight 404 6.12323399573676603586882014729198302312846062338790031898128063403419218957424163818359375E-17 0
c p weight -404 1 0
c p weight 405 1 0
c p weight -405 1 0
c p weight 406 -1 0
c p weight -406 1 0
c p weight 408 -1 0
c p weight -408 1 0
c p weight 411 -1 0
c p weight -411 1 0
c p weight 413 -1 0
c p weight -413 1 0
c p weight 415 6.12323399573676603586882014729198302312846062338790031898128063403419218957424163818359375E-17 0
c p weight -415 1 0
c p weight 416 1 0
c p weight -416 1 0
c p weight 417 -1 0
c p weight -417 1 0
c p weight 419 -1 0
c p weight -419 1 0
c p weight 422 -1 0
c p weight -422 1 0
c p weight 424 -1 0
c p weight -424 1 0
c p weight 426 6.12323399573676603586882014729198302312846062338790031898128063403419218957424163818359375E-17 0
c p weight -426 1 0
c p weight 427 1 0
c p weight -427 1 0
c p weight 428 -1 0
c p weight -428 1 0
c p weight 430 -1 0
c p weight -430 1 0
-39 0
-37 0
-35 0
-33 0
-31 0
-29 0
-27 0
-25 0
-23 0
-21 0
-19 0
-17 0
-15 0
-13 0
-11 0
-9 0
-7 0
-5 0
-3 0
-1 0
41 1 -2 0
41 -1 2 0
-41 1 2 0
-41 -1 -2 0
-42 1 0
-42 2 0
42 -1 -2 0
43 -1 41 0
-43 1 41 0
-44 41 0
43 -44 -1 0
-43 -44 1 0
43 44 1 -41 0
-43 44 -1 -41 0
-45 41 0
43 -45 1 0
-43 -45 -1 0
43 45 -1 -41 0
-43 45 1 -41 0
-46 43 0
-46 41 0
-46 -1 0
46 -43 1 -41 0
47 43 -41 0
47 -43 41 0
-47 43 41 0
-47 -43 -41 0
-48 43 0
-48 41 0
48 -43 -41 0
49 -47 0
-49 47 0
50 3 -4 0
50 -3 4 0
-50 3 4 0
-50 -3 -4 0
-51 3 0
-51 4 0
51 -3 -4 0
52 -3 50 0
-52 3 50 0
-53 50 0
52 -53 -3 0
-52 -53 3 0
52 53 3 -50 0
-52 53 -3 -50 0
-54 50 0
52 -54 3 0
-52 -54 -3 0
52 54 -3 -50 0
-52 54 3 -50 0
-55 52 0
-55 50 0
-55 -3 0
55 -52 3 -50 0
56 52 -50 0
56 -52 50 0
-56 52 50 0
-56 -52 -50 0
-57 52 0
-57 50 0
57 -52 -50 0
58 -56 0
-58 56 0
59 5 -6 0
59 -5 6 0
-59 5 6 0
-59 -5 -6 0
-60 5 0
-60 6 0
60 -5 -6 0
61 -5 59 0
-61 5 59 0
-62 59 0
61 -62 -5 0
-61 -62 5 0
61 62 5 -59 0
-61 62 -5 -59 0
-63 59 0
61 -63 5 0
-61 -63 -5 0
61 63 -5 -59 0
-61 63 5 -59 0
-64 61 0
-64 59 0
-64 -5 0
64 -61 5 -59 0
65 61 -59 0
65 -61 59 0
-65 61 59 0
-65 -61 -59 0
-66 61 0
-66 59 0
66 -61 -59 0
67 7 -8 0
67 -7 8 0
-67 7 8 0
-67 -7 -8 0
-68 7 0
-68 8 0
68 -7 -8 0
69 -7 67 0
-69 7 67 0
-70 67 0
69 -70 -7 0
-69 -70 7 0
69 70 7 -67 0
-69 70 -7 -67 0
-71 67 0
69 -71 7 0
-69 -71 -7 0
69 71 -7 -67 0
-69 71 7 -67 0
-72 69 0
-72 67 0
-72 -7 0
72 -69 7 -67 0
73 69 -67 0
73 -69 67 0
-73 69 67 0
-73 -69 -67 0
-74 69 0
-74 67 0
74 -69 -67 0
75 -73 0
-75 73 0
76 9 -10 0
76 -9 10 0
-76 9 10 0
-76 -9 -10 0
-77 9 0
-77 10 0
77 -9 -10 0
78 -9 76 0
-78 9 76 0
-79 76 0
78 -79 -9 0
-78 -79 9 0
78 79 9 -76 0
-78 79 -9 -76 0
-80 76 0
78 -80 9 0
-78 -80 -9 0
78 80 -9 -76 0
-78 80 9 -76 0
-81 78 0
-81 76 0
-81 -9 0
81 -78 9 -76 0
82 78 -76 0
82 -78 76 0
-82 78 76 0
-82 -78 -76 0
-83 78 0
-83 76 0
83 -78 -76 0
84 11 -12 0
84 -11 12 0
-84 11 12 0
-84 -11 -12 0
-85 11 0
-85 12 0
85 -11 -12 0
86 -11 84 0
-86 11 84 0
-87 84 0
86 -87 -11 0
-86 -87 11 0
86 87 11 -84 0
-86 87 -11 -84 0
-88 84 0
86 -88 11 0
-86 -88 -11 0
86 88 -11 -84 0
-86 88 11 -84 0
-89 86 0
-89 84 0
-89 -11 0
89 -86 11 -84 0
90 86 -84 0
90 -86 84 0
-90 86 84 0
-90 -86 -84 0
-91 86 0
-91 84 0
91 -86 -84 0
92 -90 0
-92 90 0
93 13 -14 0
93 -13 14 0
-93 13 14 0
-93 -13 -14 0
-94 13 0
-94 14 0
94 -13 -14 0
95 -13 93 0
-95 13 93 0
-96 93 0
95 -96 -13 0
-95 -96 13 0
95 96 13 -93 0
-95 96 -13 -93 0
-97 93 0
95 -97 13 0
-95 -97 -13 0
95 97 -13 -93 0
-95 97 13 -93 0
-98 95 0
-98 93 0
-98 -13 0
98 -95 13 -93 0
99 95 -93 0
99 -95 93 0
-99 95 93 0
-99 -95 -93 0
-100 95 0
-100 93 0
100 -95 -93 0
101 -99 0
-101 99 0
102 15 -16 0
102 -15 16 0
-102 15 16 0
-102 -15 -16 0
-103 15 0
-103 16 0
103 -15 -16 0
104 -15 102 0
-104 15 102 0
-105 102 0
104 -105 -15 0
-104 -105 15 0
104 105 15 -102 0
-104 105 -15 -102 0
-106 102 0
104 -106 15 0
-104 -106 -15 0
104 106 -15 -102 0
-104 106 15 -102 0
-107 104 0
-107 102 0
-107 -15 0
107 -104 15 -102 0
108 104 -102 0
108 -104 102 0
-108 104 102 0
-108 -104 -102 0
-109 104 0
-109 102 0
109 -104 -102 0
110 17 -18 0
110 -17 18 0
-110 17 18 0
-110 -17 -18 0
-111 17 0
-111 18 0
111 -17 -18 0
112 -17 110 0
-112 17 110 0
-113 110 0
112 -113 -17 0
-112 -113 17 0
112 113 17 -110 0
-112 113 -17 -110 0
-114 110 0
112 -114 17 0
-112 -114 -17 0
112 114 -17 -110 0
-112 114 17 -110 0
-115 112 0
-115 110 0
-115 -17 0
115 -112 17 -110 0
116 112 -110 0
116 -112 110 0
-116 112 110 0
-116 -112 -110 0
-117 112 0
-117 110 0
117 -112 -110 0
118 -116 0
-118 116 0
119 19 -20 0
119 -19 20 0
-119 19 20 0
-119 -19 -20 0
-120 19 0
-120 20 0
120 -19 -20 0
121 -19 119 0
-121 19 119 0
-122 119 0
121 -122 -19 0
-121 -122 19 0
121 122 19 -119 0
-121 122 -19 -119 0
-123 119 0
121 -123 19 0
-121 -123 -19 0
121 123 -19 -119 0
-121 123 19 -119 0
-124 121 0
-124 119 0
-124 -19 0
124 -121 19 -119 0
125 121 -119 0
125 -121 119 0
-125 121 119 0
-125 -121 -119 0
-126 121 0
-126 119 0
126 -121 -119 0
127 -125 0
-127 125 0
128 21 -22 0
128 -21 22 0
-128 21 22 0
-128 -21 -22 0
-129 21 0
-129 22 0
129 -21 -22 0
130 -21 128 0
-130 21 128 0
-131 128 0
130 -131 -21 0
-130 -131 21 0
130 131 21 -128 0
-130 131 -21 -128 0
-132 128 0
130 -132 21 0
-130 -132 -21 0
130 132 -21 -128 0
-130 132 21 -128 0
-133 130 0
-133 128 0
-133 -21 0
133 -130 21 -128 0
134 130 -128 0
134 -130 128 0
-134 130 128 0
-134 -130 -128 0
-135 130 0
-135 128 0
135 -130 -128 0
136 23 -24 0
136 -23 24 0
-136 23 24 0
-136 -23 -24 0
-137 23 0
-137 24 0
137 -23 -24 0
138 -23 136 0
-138 23 136 0
-139 136 0
138 -139 -23 0
-138 -139 23 0
138 139 23 -136 0
-138 139 -23 -136 0
-140 136 0
138 -140 23 0
-138 -140 -23 0
138 140 -23 -136 0
-138 140 23 -136 0
-141 138 0
-141 136 0
-141 -23 0
141 -138 23 -136 0
142 138 -136 0
142 -138 136 0
-142 138 136 0
-142 -138 -136 0
-143 138 0
-143 136 0
143 -138 -136 0
144 -142 0
-144 142 0
145 25 -26 0
145 -25 26 0
-145 25 26 0
-145 -25 -26 0
-146 25 0
-146 26 0
146 -25 -26 0
147 -25 145 0
-147 25 145 0
-148 145 0
147 -148 -25 0
-147 -148 25 0
147 148 25 -145 0
-147 148 -25 -145 0
-149 145 0
147 -149 25 0
-147 -149 -25 0
147 149 -25 -145 0
-147 149 25 -145 0
-150 147 0
-150 145 0
-150 -25 0
150 -147 25 -145 0
151 147 -145 0
151 -147 145 0
-151 147 145 0
-151 -147 -145 0
-152 147 0
-152 145 0
152 -147 -145 0
153 -151 0
-153 151 0
154 27 -28 0
154 -27 28 0
-154 27 28 0
-154 -27 -28 0
-155 27 0
-155 28 0
155 -27 -28 0
156 -27 154 0
-156 27 154 0
-157 154 0
156 -157 -27 0
-156 -157 27 0
156 157 27 -154 0
-156 157 -27 -154 0
-158 154 0
156 -158 27 0
-156 -158 -27 0
156 158 -27 -154 0
-156 158 27 -154 0
-159 156 0
-159 154 0
-159 -27 0
159 -156 27 -154 0
160 156 -154 0
160 -156 154 0
-160 156 154 0
-160 -156 -154 0
-161 156 0
-161 154 0
161 -156 -154 0
162 29 -30 0
162 -29 30 0
-162 29 30 0
-162 -29 -30 0
-163 29 0
-163 30 0
163 -29 -30 0
164 -29 162 0
-164 29 162 0
-165 162 0
164 -165 -29 0
-164 -165 29 0
164 165 29 -162 0
-164 165 -29 -162 0
-166 162 0
164 -166 29 0
-164 -166 -29 0
164 166 -29 -162 0
-164 166 29 -162 0
-167 164 0
-167 162 0
-167 -29 0
167 -164 29 -162 0
168 164 -162 0
168 -164 162 0
-168 164 162 0
-168 -164 -162 0
-169 164 0
-169 162 0
169 -164 -162 0
170 31 -32 0
170 -31 32 0
-170 31 32 0
-170 -31 -32 0
-171 31 0
-171 32 0
171 -31 -32 0
172 -31 170 0
-172 31 170 0
-173 170 0
172 -173 -31 0
-172 -173 31 0
172 173 31 -170 0
-172 173 -31 -170 0
-174 170 0
172 -174 31 0
-172 -174 -31 0
172 174 -31 -170 0
-172 174 31 -170 0
-175 172 0
-175 170 0
-175 -31 0
175 -172 31 -170 0
176 172 -170 0
176 -172 170 0
-176 172 170 0
-176 -172 -170 0
-177 172 0
-177 170 0
177 -172 -170 0
178 -176 0
-178 176 0
179 33 -34 0
179 -33 34 0
-179 33 34 0
-179 -33 -34 0
-180 33 0
-180 34 0
180 -33 -34 0
181 -33 179 0
-181 33 179 0
-182 179 0
181 -182 -33 0
-181 -182 33 0
181 182 33 -179 0
-181 182 -33 -179 0
-183 179 0
181 -183 33 0
-181 -183 -33 0
181 183 -33 -179 0
-181 183 33 -179 0
-184 181 0
-184 179 0
-184 -33 0
184 -181 33 -179 0
185 181 -179 0
185 -181 179 0
-185 181 179 0
-185 -181 -179 0
-186 181 0
-186 179 0
186 -181 -179 0
187 35 -36 0
187 -35 36 0
-187 35 36 0
-187 -35 -36 0
-188 35 0
-188 36 0
188 -35 -36 0
189 -35 187 0
-189 35 187 0
-190 187 0
189 -190 -35 0
-189 -190 35 0
189 190 35 -187 0
-189 190 -35 -187 0
-191 187 0
189 -191 35 0
-189 -191 -35 0
189 191 -35 -187 0
-189 191 35 -187 0
-192 189 0
-192 187 0
-192 -35 0
192 -189 35 -187 0
193 189 -187 0
193 -189 187 0
-193 189 187 0
-193 -189 -187 0
-194 189 0
-194 187 0
194 -189 -187 0
195 37 -38 0
195 -37 38 0
-195 37 38 0
-195 -37 -38 0
-196 37 0
-196 38 0
196 -37 -38 0
197 -37 195 0
-197 37 195 0
-198 195 0
197 -198 -37 0
-197 -198 37 0
197 198 37 -195 0
-197 198 -37 -195 0
-199 195 0
197 -199 37 0
-197 -199 -37 0
197 199 -37 -195 0
-197 199 37 -195 0
-200 197 0
-200 195 0
-200 -37 0
200 -197 37 -195 0
201 197 -195 0
201 -197 195 0
-201 197 195 0
-201 -197 -195 0
-202 197 0
-202 195 0
202 -197 -195 0
203 -40 0
-203 40 0
204 39 -40 0
204 -39 40 0
-204 39 40 0
-204 -39 -40 0
-205 39 0
-205 40 0
205 -39 -40 0
206 -39 204 0
-206 39 204 0
-207 204 0
206 -207 -39 0
-206 -207 39 0
206 207 39 -204 0
-206 207 -39 -204 0
-208 204 0
206 -208 39 0
-206 -208 -39 0
206 208 -39 -204 0
-206 208 39 -204 0
-209 206 0
-209 204 0
-209 -39 0
209 -206 39 -204 0
210 206 -204 0
210 -206 204 0
-210 206 204 0
-210 -206 -204 0
-211 206 0
-211 204 0
211 -206 -204 0
212 43 -206 0
212 -43 206 0
-212 43 206 0
-212 -43 -206 0
213 47 -210 0
213 -47 210 0
-213 47 210 0
-213 -47 -210 0
-214 43 0
-214 210 0
-214 206 -47 0
-214 -206 47 0
214 -43 206 47 -210 0
214 -43 -206 -47 -210 0
215 -213 0
-215 213 0
216 43 -213 0
216 -43 213 0
-216 43 213 0
-216 -43 -213 0
-217 43 0
-217 213 0
217 -43 -213 0
218 -43 216 0
-218 43 216 0
-219 216 0
218 -219 -43 0
-218 -219 43 0
218 219 43 -216 0
-218 219 -43 -216 0
-220 216 0
218 -220 43 0
-218 -220 -43 0
218 220 -43 -216 0
-218 220 43 -216 0
-221 218 0
-221 216 0
-221 -43 0
221 -218 43 -216 0
222 218 -216 0
222 -218 216 0
-222 218 216 0
-222 -218 -216 0
-223 218 0
-223 216 0
223 -218 -216 0
224 52 -212 0
224 -52 212 0
-224 52 212 0
-224 -52 -212 0
225 56 -210 0
225 -56 210 0
-225 56 210 0
-225 -56 -210 0
-226 52 0
-226 210 0
-226 212 -56 0
-226 -212 56 0
226 -52 212 56 -210 0
226 -52 -212 -56 -210 0
227 -225 0
-227 225 0
228 52 -225 0
228 -52 225 0
-228 52 225 0
-228 -52 -225 0
-229 52 0
-229 225 0
229 -52 -225 0
230 -52 228 0
-230 52 228 0
-231 228 0
230 -231 -52 0
-230 -231 52 0
230 231 52 -228 0
-230 231 -52 -228 0
-232 228 0
230 -232 52 0
-230 -232 -52 0
230 232 -52 -228 0
-230 232 52 -228 0
-233 230 0
-233 228 0
-233 -52 0
233 -230 52 -228 0
234 230 -228 0
234 -230 228 0
-234 230 228 0
-234 -230 -228 0
-235 230 0
-235 228 0
235 -230 -228 0
236 61 -224 0
236 -61 224 0
-236 61 224 0
-236 -61 -224 0
237 65 -210 0
237 -65 210 0
-237 65 210 0
-237 -65 -210 0
-238 61 0
-238 210 0
-238 224 -65 0
-238 -224 65 0
238 -61 224 65 -210 0
238 -61 -224 -65 -210 0
239 61 -237 0
239 -61 237 0
-239 61 237 0
-239 -61 -237 0
-240 61 0
-240 237 0
240 -61 -237 0
241 -61 239 0
-241 61 239 0
-242 239 0
241 -242 -61 0
-241 -242 61 0
241 242 61 -239 0
-241 242 -61 -239 0
-243 239 0
241 -243 61 0
-241 -243 -61 0
241 243 -61 -239 0
-241 243 61 -239 0
-244 241 0
-244 239 0
-244 -61 0
244 -241 61 -239 0
245 241 -239 0
245 -241 239 0
-245 241 239 0
-245 -241 -239 0
-246 241 0
-246 239 0
246 -241 -239 0
247 69 -236 0
247 -69 236 0
-247 69 236 0
-247 -69 -236 0
248 73 -210 0
248 -73 210 0
-248 73 210 0
-248 -73 -210 0
-249 69 0
-249 210 0
-249 236 -73 0
-249 -236 73 0
249 -69 236 73 -210 0
249 -69 -236 -73 -210 0
250 -248 0
-250 248 0
251 69 -248 0
251 -69 248 0
-251 69 248 0
-251 -69 -248 0
-252 69 0
-252 248 0
252 -69 -248 0
253 -69 251 0
-253 69 251 0
-254 251 0
253 -254 -69 0
-253 -254 69 0
253 254 69 -251 0
-253 254 -69 -251 0
-255 251 0
253 -255 69 0
-253 -255 -69 0
253 255 -69 -251 0
-253 255 69 -251 0
-256 253 0
-256 251 0
-256 -69 0
256 -253 69 -251 0
257 253 -251 0
257 -253 251 0
-257 253 251 0
-257 -253 -251 0
-258 253 0
-258 251 0
258 -253 -251 0
259 78 -247 0
259 -78 247 0
-259 78 247 0
-259 -78 -247 0
260 82 -210 0
260 -82 210 0
-260 82 210 0
-260 -82 -210 0
-261 78 0
-261 210 0
-261 247 -82 0
-261 -247 82 0
261 -78 247 82 -210 0
261 -78 -247 -82 -210 0
262 78 -260 0
262 -78 260 0
-262 78 260 0
-262 -78 -260 0
-263 78 0
-263 260 0
263 -78 -260 0
264 -78 262 0
-264 78 262 0
-265 262 0
264 -265 -78 0
-264 -265 78 0
264 265 78 -262 0
-264 265 -78 -262 0
-266 262 0
264 -266 78 0
-264 -266 -78 0
264 266 -78 -262 0
-264 266 78 -262 0
-267 264 0
-267 262 0
-267 -78 0
267 -264 78 -262 0
268 264 -262 0
268 -264 262 0
-268 264 262 0
-268 -264 -262 0
-269 264 0
-269 262 0
269 -264 -262 0
270 86 -259 0
270 -86 259 0
-270 86 259 0
-270 -86 -259 0
271 90 -210 0
271 -90 210 0
-271 90 210 0
-271 -90 -210 0
-272 86 0
-272 210 0
-272 259 -90 0
-272 -259 90 0
272 -86 259 90 -210 0
272 -86 -259 -90 -210 0
273 -271 0
-273 271 0
274 86 -271 0
274 -86 271 0
-274 86 271 0
-274 -86 -271 0
-275 86 0
-275 271 0
275 -86 -271 0
276 -86 274 0
-276 86 274 0
-277 274 0
276 -277 -86 0
-276 -277 86 0
276 277 86 -274 0
-276 277 -86 -274 0
-278 274 0
276 -278 86 0
-276 -278 -86 0
276 278 -86 -274 0
-276 278 86 -274 0
-279 276 0
-279 274 0
-279 -86 0
279 -276 86 -274 0
280 276 -274 0
280 -276 274 0
-280 276 274 0
-280 -276 -274 0
-281 276 0
-281 274 0
281 -276 -274 0
282 95 -270 0
282 -95 270 0
-282 95 270 0
-282 -95 -270 0
283 99 -210 0
283 -99 210 0
-283 99 210 0
-283 -99 -210 0
-284 95 0
-284 210 0
-284 270 -99 0
-284 -270 99 0
284 -95 270 99 -210 0
284 -95 -270 -99 -210 0
285 -283 0
-285 283 0
286 95 -283 0
286 -95 283 0
-286 95 283 0
-286 -95 -283 0
-287 95 0
-287 283 0
287 -95 -283 0
288 -95 286 0
-288 95 286 0
-289 286 0
288 -289 -95 0
-288 -289 95 0
288 289 95 -286 0
-288 289 -95 -286 0
-290 286 0
288 -290 95 0
-288 -290 -95 0
288 290 -95 -286 0
-288 290 95 -286 0
-291 288 0
-291 286 0
-291 -95 0
291 -288 95 -286 0
292 288 -286 0
292 -288 286 0
-292 288 286 0
-292 -288 -286 0
-293 288 0
-293 286 0
293 -288 -286 0
294 104 -282 0
294 -104 282 0
-294 104 282 0
-294 -104 -282 0
295 108 -210 0
295 -108 210 0
-295 108 210 0
-295 -108 -210 0
-296 104 0
-296 210 0
-296 282 -108 0
-296 -282 108 0
296 -104 282 108 -210 0
296 -104 -282 -108 -210 0
297 104 -295 0
297 -104 295 0
-297 104 295 0
-297 -104 -295 0
-298 104 0
-298 295 0
298 -104 -295 0
299 -104 297 0
-299 104 297 0
-300 297 0
299 -300 -104 0
-299 -300 104 0
299 300 104 -297 0
-299 300 -104 -297 0
-301 297 0
299 -301 104 0
-299 -301 -104 0
299 301 -104 -297 0
-299 301 104 -297 0
-302 299 0
-302 297 0
-302 -104 0
302 -299 104 -297 0
303 299 -297 0
303 -299 297 0
-303 299 297 0
-303 -299 -297 0
-304 299 0
-304 297 0
304 -299 -297 0
305 112 -294 0
305 -112 294 0
-305 112 294 0
-305 -112 -294 0
306 116 -210 0
306 -116 210 0
-306 116 210 0
-306 -116 -210 0
-307 112 0
-307 210 0
-307 294 -116 0
-307 -294 116 0
307 -112 294 116 -210 0
307 -112 -294 -116 -210 0
308 -306 0
-308 306 0
309 112 -306 0
309 -112 306 0
-309 112 306 0
-309 -112 -306 0
-310 112 0
-310 306 0
310 -112 -306 0
311 -112 309 0
-311 112 309 0
-312 309 0
311 -312 -112 0
-311 -312 112 0
311 312 112 -309 0
-311 312 -112 -309 0
-313 309 0
311 -313 112 0
-311 -313 -112 0
311 313 -112 -309 0
-311 313 112 -309 0
-314 311 0
-314 309 0
-314 -112 0
314 -311 112 -309 0
315 311 -309 0
315 -311 309 0
-315 311 309 0
-315 -311 -309 0
-316 311 0
-316 309 0
316 -311 -309 0
317 121 -305 0
317 -121 305 0
-317 121 305 0
-317 -121 -305 0
318 125 -210 0
318 -125 210 0
-318 125 210 0
-318 -125 -210 0
-319 121 0
-319 210 0
-319 305 -125 0
-319 -305 125 0
319 -121 305 125 -210 0
319 -121 -305 -125 -210 0
320 -318 0
-320 318 0
321 121 -318 0
321 -121 318 0
-321 121 318 0
-321 -121 -318 0
-322 121 0
-322 318 0
322 -121 -318 0
323 -121 321 0
-323 121 321 0
-324 321 0
323 -324 -121 0
-323 -324 121 0
323 324 121 -321 0
-323 324 -121 -321 0
-325 321 0
323 -325 121 0
-323 -325 -121 0
323 325 -121 -321 0
-323 325 121 -321 0
-326 323 0
-326 321 0
-326 -121 0
326 -323 121 -321 0
327 323 -321 0
327 -323 321 0
-327 323 321 0
-327 -323 -321 0
-328 323 0
-328 321 0
328 -323 -321 0
329 130 -317 0
329 -130 317 0
-329 130 317 0
-329 -130 -317 0
330 134 -210 0
330 -134 210 0
-330 134 210 0
-330 -134 -210 0
-331 130 0
-331 210 0
-331 317 -134 0
-331 -317 134 0
331 -130 317 134 -210 0
331 -130 -317 -134 -210 0
332 130 -330 0
332 -130 330 0
-332 130 330 0
-332 -130 -330 0
-333 130 0
-333 330 0
333 -130 -330 0
334 -130 332 0
-334 130 332 0
-335 332 0
334 -335 -130 0
-334 -335 130 0
334 335 130 -332 0
-334 335 -130 -332 0
-336 332 0
334 -336 130 0
-334 -336 -130 0
334 336 -130 -332 0
-334 336 130 -332 0
-337 334 0
-337 332 0
-337 -130 0
337 -334 130 -332 0
338 334 -332 0
338 -334 332 0
-338 334 332 0
-338 -334 -332 0
-339 334 0
-339 332 0
339 -334 -332 0
340 138 -329 0
340 -138 329 0
-340 138 329 0
-340 -138 -329 0
341 142 -210 0
341 -142 210 0
-341 142 210 0
-341 -142 -210 0
-342 138 0
-342 210 0
-342 329 -142 0
-342 -329 142 0
342 -138 329 142 -210 0
342 -138 -329 -142 -210 0
343 -341 0
-343 341 0
344 138 -341 0
344 -138 341 0
-344 138 341 0
-344 -138 -341 0
-345 138 0
-345 341 0
345 -138 -341 0
346 -138 344 0
-346 138 344 0
-347 344 0
346 -347 -138 0
-346 -347 138 0
346 347 138 -344 0
-346 347 -138 -344 0
-348 344 0
346 -348 138 0
-346 -348 -138 0
346 348 -138 -344 0
-346 348 138 -344 0
-349 346 0
-349 344 0
-349 -138 0
349 -346 138 -344 0
350 346 -344 0
350 -346 344 0
-350 346 344 0
-350 -346 -344 0
-351 346 0
-351 344 0
351 -346 -344 0
352 147 -340 0
352 -147 340 0
-352 147 340 0
-352 -147 -340 0
353 151 -210 0
353 -151 210 0
-353 151 210 0
-353 -151 -210 0
-354 147 0
-354 210 0
-354 340 -151 0
-354 -340 151 0
354 -147 340 151 -210 0
354 -147 -340 -151 -210 0
355 -353 0
-355 353 0
356 147 -353 0
356 -147 353 0
-356 147 353 0
-356 -147 -353 0
-357 147 0
-357 353 0
357 -147 -353 0
358 -147 356 0
-358 147 356 0
-359 356 0
358 -359 -147 0
-358 -359 147 0
358 359 147 -356 0
-358 359 -147 -356 0
-360 356 0
358 -360 147 0
-358 -360 -147 0
358 360 -147 -356 0
-358 360 147 -356 0
-361 358 0
-361 356 0
-361 -147 0
361 -358 147 -356 0
362 358 -356 0
362 -358 356 0
-362 358 356 0
-362 -358 -356 0
-363 358 0
-363 356 0
363 -358 -356 0
364 156 -352 0
364 -156 352 0
-364 156 352 0
-364 -156 -352 0
365 160 -210 0
365 -160 210 0
-365 160 210 0
-365 -160 -210 0
-366 156 0
-366 210 0
-366 352 -160 0
-366 -352 160 0
366 -156 352 160 -210 0
366 -156 -352 -160 -210 0
367 156 -365 0
367 -156 365 0
-367 156 365 0
-367 -156 -365 0
-368 156 0
-368 365 0
368 -156 -365 0
369 -156 367 0
-369 156 367 0
-370 367 0
369 -370 -156 0
-369 -370 156 0
369 370 156 -367 0
-369 370 -156 -367 0
-371 367 0
369 -371 156 0
-369 -371 -156 0
369 371 -156 -367 0
-369 371 156 -367 0
-372 369 0
-372 367 0
-372 -156 0
372 -369 156 -367 0
373 369 -367 0
373 -369 367 0
-373 369 367 0
-373 -369 -367 0
-374 369 0
-374 367 0
374 -369 -367 0
375 164 -364 0
375 -164 364 0
-375 164 364 0
-375 -164 -364 0
376 168 -210 0
376 -168 210 0
-376 168 210 0
-376 -168 -210 0
-377 164 0
-377 210 0
-377 364 -168 0
-377 -364 168 0
377 -164 364 168 -210 0
377 -164 -364 -168 -210 0
378 164 -376 0
378 -164 376 0
-378 164 376 0
-378 -164 -376 0
-379 164 0
-379 376 0
379 -164 -376 0
380 -164 378 0
-380 164 378 0
-381 378 0
380 -381 -164 0
-380 -381 164 0
380 381 164 -378 0
-380 381 -164 -378 0
-382 378 0
380 -382 164 0
-380 -382 -164 0
380 382 -164 -378 0
-380 382 164 -378 0
-383 380 0
-383 378 0
-383 -164 0
383 -380 164 -378 0
384 380 -378 0
384 -380 378 0
-384 380 378 0
-384 -380 -378 0
-385 380 0
-385 378 0
385 -380 -378 0
386 172 -375 0
386 -172 375 0
-386 172 375 0
-386 -172 -375 0
387 176 -210 0
387 -176 210 0
-387 176 210 0
-387 -176 -210 0
-388 172 0
-388 210 0
-388 375 -176 0
-388 -375 176 0
388 -172 375 176 -210 0
388 -172 -375 -176 -210 0
389 -387 0
-389 387 0
390 172 -387 0
390 -172 387 0
-390 172 387 0
-390 -172 -387 0
-391 172 0
-391 387 0
391 -172 -387 0
392 -172 390 0
-392 172 390 0
-393 390 0
392 -393 -172 0
-392 -393 172 0
392 393 172 -390 0
-392 393 -172 -390 0
-394 390 0
392 -394 172 0
-392 -394 -172 0
392 394 -172 -390 0
-392 394 172 -390 0
-395 392 0
-395 390 0
-395 -172 0
395 -392 172 -390 0
396 392 -390 0
396 -392 390 0
-396 392 390 0
-396 -392 -390 0
-397 392 0
-397 390 0
397 -392 -390 0
398 181 -386 0
398 -181 386 0
-398 181 386 0
-398 -181 -386 0
399 185 -210 0
399 -185 210 0
-399 185 210 0
-399 -185 -210 0
-400 181 0
-400 210 0
-400 386 -185 0
-400 -386 185 0
400 -181 386 185 -210 0
400 -181 -386 -185 -210 0
401 181 -399 0
401 -181 399 0
-401 181 399 0
-401 -181 -399 0
-402 181 0
-402 399 0
402 -181 -399 0
403 -181 401 0
-403 181 401 0
-404 401 0
403 -404 -181 0
-403 -404 181 0
403 404 181 -401 0
-403 404 -181 -401 0
-405 401 0
403 -405 181 0
-403 -405 -181 0
403 405 -181 -401 0
-403 405 181 -401 0
-406 403 0
-406 401 0
-406 -181 0
406 -403 181 -401 0
407 403 -401 0
407 -403 401 0
-407 403 401 0
-407 -403 -401 0
-408 403 0
-408 401 0
408 -403 -401 0
409 189 -398 0
409 -189 398 0
-409 189 398 0
-409 -189 -398 0
410 193 -210 0
410 -193 210 0
-410 193 210 0
-410 -193 -210 0
-411 189 0
-411 210 0
-411 398 -193 0
-411 -398 193 0
411 -189 398 193 -210 0
411 -189 -398 -193 -210 0
412 189 -410 0
412 -189 410 0
-412 189 410 0
-412 -189 -410 0
-413 189 0
-413 410 0
413 -189 -410 0
414 -189 412 0
-414 189 412 0
-415 412 0
414 -415 -189 0
-414 -415 189 0
414 415 189 -412 0
-414 415 -189 -412 0
-416 412 0
414 -416 189 0
-414 -416 -189 0
414 416 -189 -412 0
-414 416 189 -412 0
-417 414 0
-417 412 0
-417 -189 0
417 -414 189 -412 0
418 414 -412 0
418 -414 412 0
-418 414 412 0
-418 -414 -412 0
-419 414 0
-419 412 0
419 -414 -412 0
420 197 -409 0
420 -197 409 0
-420 197 409 0
-420 -197 -409 0
421 201 -210 0
421 -201 210 0
-421 201 210 0
-421 -201 -210 0
-422 197 0
-422 210 0
-422 409 -201 0
-422 -409 201 0
422 -197 409 201 -210 0
422 -197 -409 -201 -210 0
423 197 -421 0
423 -197 421 0
-423 197 421 0
-423 -197 -421 0
-424 197 0
-424 421 0
424 -197 -421 0
425 -197 423 0
-425 197 423 0
-426 423 0
425 -426 -197 0
-425 -426 197 0
425 426 197 -423 0
-425 426 -197 -423 0
-427 423 0
425 -427 197 0
-425 -427 -197 0
425 427 -197 -423 0
-425 427 197 -423 0
-428 425 0
-428 423 0
-428 -197 0
428 -425 197 -423 0
429 425 -423 0
429 -425 423 0
-429 425 423 0
-429 -425 -423 0
-430 425 0
-430 423 0
430 -425 -423 0
-218 0
-230 0
-234 0
-241 0
-245 0
-253 0
-257 0
-264 0
-268 0
-276 0
-280 0
-288 0
-292 0
-299 0
-303 0
-311 0
-315 0
-323 0
-327 0
-334 0
-338 0
-346 0
-350 0
-358 0
-362 0
-369 0
-373 0
-380 0
-384 0
-392 0
-396 0
-403 0
-407 0
-414 0
-418 0
-425 0
-429 0
-420 0
-210 0
